MAXIMIZE
OBJ:  -69.0 x0 -69.0 x1 -81.0 x2 -81.0 x3 -81.0 x4 -81.0 x5 -81.0 x6 -81.0 x7 -81.0 x8 -62.0 x9 -62.0 x10 -62.0 x11 -62.0 x12 -62.0 x13 -62.0 x14 -62.0 x15 -62.0 x16 -62.0 x17 -62.0 x18 -62.0 x19 -62.0 x20 -62.0 x21 -62.0 x22 -62.0 x23 -62.0 x24 -62.0 x25 -62.0 x26 -62.0 x27 -62.0 x28 -62.0 x29 -62.0 x30 -62.0 x31 -62.0 x32 -62.0 x33 -62.0 x34 -62.0 x35 -62.0 x36 -62.0 x37 -62.0 x38 -36.0 x39 -68.0 x40 -68.0 x41 -39.0 x42 -39.0 x43 -39.0 x44 -39.0 x45 -39.0 x46 -71.0 x47 -71.0 x48 -71.0 x49 -71.0 x50 -71.0 x51 -71.0 x52 -71.0 x53 -71.0 x54 -71.0 x55 -71.0 x56 -71.0 x57 -71.0 x58 -71.0 x59 -71.0 x60 -71.0 x61 -71.0 x62 -71.0 x63 -71.0 x64 -71.0 x65 -71.0 x66 -71.0 x67 -71.0 x68 -71.0 x69 -71.0 x70 -71.0 x71 -71.0 x72 -71.0 x73 -71.0 x74 -71.0 x75 -71.0 x76 -5.0 x77 -5.0 x78 -5.0 x79 -5.0 x80 -5.0 x81 -5.0 x82 -5.0 x83 -5.0 x84 -5.0 x85 -5.0 x86 -5.0 x87 -5.0 x88 -5.0 x89 -5.0 x90 -5.0 x91 -5.0 x92 -5.0 x93 -5.0 x94 -5.0 x95 -5.0 x96 -5.0 x97 -5.0 x98 -5.0 x99
SUBJECT TO

C0:  +0 x0 +0 x1 +0 x2 +0 x3 +1 x4 +1 x5 +1 x6 +0 x7 +0 x8 +0 x9 +1 x10 +0 x11 +0 x12 +1 x13 +1 x14 +0 x15 +1 x16 +0 x17 +0 x18 +0 x19 +0 x20 +1 x21 +0 x22 +1 x23 +0 x24 +0 x25 +1 x26 +0 x27 +0 x28 +0 x29 +0 x30 +0 x31 +0 x32 +0 x33 +0 x34 +1 x35 +1 x36 +1 x37 +1 x38 +0 x39 +1 x40 +0 x41 +1 x42 +0 x43 +0 x44 +0 x45 +0 x46 +1 x47 +0 x48 +0 x49 +0 x50 +0 x51 +1 x52 +0 x53 +1 x54 +0 x55 +0 x56 +1 x57 +0 x58 +0 x59 +0 x60 +0 x61 +0 x62 +1 x63 +1 x64 +1 x65 +1 x66 +1 x67 +0 x68 +1 x69 +0 x70 +0 x71 +0 x72 +1 x73 +0 x74 +0 x75 +1 x76 +1 x77 +1 x78 +1 x79 +0 x80 +1 x81 +0 x82 +1 x83 +1 x84 +0 x85 +0 x86 +1 x87 +0 x88 +0 x89 +0 x90 +1 x91 +1 x92 +1 x93 +0 x94 +1 x95 +0 x96 +1 x97 +1 x98 +0 x99 - s1 = 1
C1:  +1 x0 +1 x1 +0 x2 +1 x3 +1 x4 +0 x5 +0 x6 +1 x7 +0 x8 +0 x9 +0 x10 +0 x11 +0 x12 +1 x13 +1 x14 +0 x15 +0 x16 +0 x17 +1 x18 +0 x19 +1 x20 +0 x21 +1 x22 +0 x23 +0 x24 +1 x25 +1 x26 +1 x27 +0 x28 +0 x29 +1 x30 +0 x31 +0 x32 +0 x33 +0 x34 +0 x35 +0 x36 +0 x37 +0 x38 +0 x39 +0 x40 +1 x41 +0 x42 +0 x43 +0 x44 +1 x45 +1 x46 +1 x47 +0 x48 +1 x49 +1 x50 +1 x51 +0 x52 +0 x53 +0 x54 +1 x55 +1 x56 +0 x57 +1 x58 +0 x59 +0 x60 +0 x61 +1 x62 +0 x63 +1 x64 +0 x65 +1 x66 +0 x67 +0 x68 +1 x69 +0 x70 +1 x71 +0 x72 +0 x73 +1 x74 +0 x75 +0 x76 +1 x77 +1 x78 +0 x79 +0 x80 +0 x81 +1 x82 +0 x83 +0 x84 +0 x85 +1 x86 +0 x87 +0 x88 +1 x89 +1 x90 +0 x91 +1 x92 +0 x93 +1 x94 +0 x95 +1 x96 +0 x97 +0 x98 +0 x99 - s2 = 1
C2:  +1 x0 +0 x1 +1 x2 +0 x3 +0 x4 +0 x5 +0 x6 +0 x7 +0 x8 +1 x9 +0 x10 +0 x11 +0 x12 +0 x13 +0 x14 +1 x15 +0 x16 +1 x17 +0 x18 +0 x19 +0 x20 +0 x21 +0 x22 +0 x23 +0 x24 +1 x25 +0 x26 +1 x27 +1 x28 +1 x29 +0 x30 +0 x31 +0 x32 +1 x33 +1 x34 +0 x35 +1 x36 +0 x37 +1 x38 +1 x39 +0 x40 +0 x41 +1 x42 +0 x43 +1 x44 +0 x45 +0 x46 +0 x47 +1 x48 +0 x49 +0 x50 +0 x51 +0 x52 +1 x53 +1 x54 +1 x55 +0 x56 +1 x57 +0 x58 +1 x59 +0 x60 +0 x61 +1 x62 +0 x63 +0 x64 +0 x65 +0 x66 +0 x67 +0 x68 +0 x69 +0 x70 +1 x71 +0 x72 +1 x73 +0 x74 +0 x75 +0 x76 +0 x77 +0 x78 +0 x79 +0 x80 +0 x81 +0 x82 +0 x83 +1 x84 +0 x85 +0 x86 +1 x87 +0 x88 +0 x89 +0 x90 +0 x91 +0 x92 +0 x93 +1 x94 +1 x95 +0 x96 +1 x97 +0 x98 +1 x99 - s3 = 1
C3:  +0 x0 +0 x1 +0 x2 +1 x3 +0 x4 +0 x5 +1 x6 +0 x7 +1 x8 +1 x9 +1 x10 +0 x11 +1 x12 +0 x13 +0 x14 +0 x15 +1 x16 +1 x17 +1 x18 +1 x19 +0 x20 +1 x21 +0 x22 +0 x23 +1 x24 +0 x25 +0 x26 +1 x27 +0 x28 +1 x29 +0 x30 +1 x31 +1 x32 +0 x33 +0 x34 +1 x35 +0 x36 +0 x37 +0 x38 +0 x39 +0 x40 +0 x41 +0 x42 +0 x43 +1 x44 +0 x45 +0 x46 +0 x47 +0 x48 +1 x49 +0 x50 +0 x51 +0 x52 +0 x53 +0 x54 +1 x55 +1 x56 +0 x57 +1 x58 +0 x59 +1 x60 +1 x61 +0 x62 +1 x63 +0 x64 +1 x65 +1 x66 +0 x67 +1 x68 +1 x69 +0 x70 +0 x71 +0 x72 +1 x73 +0 x74 +0 x75 +0 x76 +1 x77 +0 x78 +1 x79 +1 x80 +1 x81 +0 x82 +0 x83 +1 x84 +1 x85 +1 x86 +0 x87 +0 x88 +1 x89 +1 x90 +0 x91 +1 x92 +0 x93 +0 x94 +0 x95 +1 x96 +0 x97 +0 x98 +1 x99 - s4 = 1
C4:  +1 x0 +0 x1 +0 x2 +1 x3 +0 x4 +1 x5 +0 x6 +0 x7 +0 x8 +0 x9 +0 x10 +0 x11 +1 x12 +0 x13 +0 x14 +1 x15 +1 x16 +1 x17 +0 x18 +1 x19 +1 x20 +0 x21 +1 x22 +0 x23 +0 x24 +1 x25 +1 x26 +0 x27 +1 x28 +0 x29 +0 x30 +0 x31 +1 x32 +1 x33 +0 x34 +1 x35 +0 x36 +0 x37 +0 x38 +0 x39 +0 x40 +0 x41 +0 x42 +0 x43 +1 x44 +0 x45 +1 x46 +0 x47 +0 x48 +0 x49 +0 x50 +0 x51 +1 x52 +0 x53 +1 x54 +0 x55 +1 x56 +0 x57 +0 x58 +0 x59 +0 x60 +1 x61 +0 x62 +0 x63 +0 x64 +0 x65 +1 x66 +0 x67 +0 x68 +1 x69 +1 x70 +0 x71 +1 x72 +0 x73 +1 x74 +0 x75 +1 x76 +1 x77 +1 x78 +0 x79 +1 x80 +0 x81 +0 x82 +0 x83 +0 x84 +0 x85 +1 x86 +0 x87 +1 x88 +0 x89 +0 x90 +0 x91 +0 x92 +1 x93 +0 x94 +0 x95 +0 x96 +0 x97 +0 x98 +0 x99 - s5 = 1
C5:  +1 x0 +1 x1 +1 x2 +0 x3 +0 x4 +1 x5 +1 x6 +0 x7 +0 x8 +0 x9 +0 x10 +1 x11 +0 x12 +0 x13 +1 x14 +0 x15 +0 x16 +0 x17 +0 x18 +0 x19 +0 x20 +0 x21 +1 x22 +0 x23 +0 x24 +0 x25 +0 x26 +1 x27 +0 x28 +0 x29 +1 x30 +0 x31 +0 x32 +1 x33 +1 x34 +0 x35 +0 x36 +1 x37 +0 x38 +0 x39 +0 x40 +1 x41 +0 x42 +1 x43 +0 x44 +0 x45 +0 x46 +0 x47 +0 x48 +0 x49 +1 x50 +0 x51 +0 x52 +0 x53 +0 x54 +0 x55 +0 x56 +0 x57 +1 x58 +1 x59 +0 x60 +0 x61 +0 x62 +0 x63 +0 x64 +1 x65 +0 x66 +1 x67 +1 x68 +0 x69 +1 x70 +1 x71 +1 x72 +0 x73 +1 x74 +0 x75 +0 x76 +0 x77 +0 x78 +0 x79 +0 x80 +0 x81 +0 x82 +0 x83 +0 x84 +0 x85 +1 x86 +0 x87 +0 x88 +0 x89 +1 x90 +0 x91 +0 x92 +1 x93 +0 x94 +0 x95 +0 x96 +1 x97 +0 x98 +1 x99 - s6 = 1
C6:  +0 x0 +0 x1 +0 x2 +0 x3 +0 x4 +0 x5 +0 x6 +0 x7 +0 x8 +0 x9 +1 x10 +1 x11 +0 x12 +0 x13 +0 x14 +0 x15 +0 x16 +0 x17 +0 x18 +0 x19 +0 x20 +0 x21 +0 x22 +0 x23 +1 x24 +0 x25 +0 x26 +0 x27 +1 x28 +1 x29 +0 x30 +0 x31 +0 x32 +1 x33 +0 x34 +0 x35 +1 x36 +0 x37 +1 x38 +1 x39 +0 x40 +0 x41 +1 x42 +0 x43 +0 x44 +0 x45 +0 x46 +0 x47 +0 x48 +1 x49 +1 x50 +1 x51 +1 x52 +1 x53 +0 x54 +0 x55 +0 x56 +0 x57 +0 x58 +1 x59 +0 x60 +0 x61 +0 x62 +1 x63 +1 x64 +0 x65 +0 x66 +0 x67 +0 x68 +0 x69 +0 x70 +0 x71 +1 x72 +0 x73 +0 x74 +1 x75 +1 x76 +0 x77 +0 x78 +1 x79 +0 x80 +0 x81 +1 x82 +1 x83 +0 x84 +1 x85 +0 x86 +0 x87 +1 x88 +0 x89 +0 x90 +1 x91 +0 x92 +0 x93 +0 x94 +0 x95 +1 x96 +0 x97 +0 x98 +0 x99 - s7 = 1
C7:  +0 x0 +1 x1 +1 x2 +1 x3 +0 x4 +1 x5 +0 x6 +1 x7 +1 x8 +0 x9 +0 x10 +0 x11 +1 x12 +0 x13 +0 x14 +1 x15 +0 x16 +0 x17 +1 x18 +0 x19 +1 x20 +0 x21 +0 x22 +0 x23 +0 x24 +0 x25 +1 x26 +0 x27 +0 x28 +1 x29 +1 x30 +1 x31 +0 x32 +0 x33 +0 x34 +0 x35 +1 x36 +0 x37 +0 x38 +0 x39 +1 x40 +0 x41 +0 x42 +0 x43 +1 x44 +1 x45 +0 x46 +1 x47 +1 x48 +0 x49 +0 x50 +1 x51 +0 x52 +0 x53 +0 x54 +0 x55 +0 x56 +0 x57 +0 x58 +0 x59 +1 x60 +0 x61 +0 x62 +1 x63 +0 x64 +1 x65 +0 x66 +0 x67 +0 x68 +0 x69 +0 x70 +1 x71 +0 x72 +1 x73 +1 x74 +1 x75 +0 x76 +0 x77 +0 x78 +0 x79 +1 x80 +0 x81 +0 x82 +0 x83 +0 x84 +1 x85 +0 x86 +0 x87 +0 x88 +1 x89 +1 x90 +1 x91 +0 x92 +0 x93 +0 x94 +1 x95 +0 x96 +0 x97 +1 x98 +0 x99 - s8 = 1
C8:  +0 x0 +0 x1 +0 x2 +0 x3 +1 x4 +0 x5 +1 x6 +1 x7 +0 x8 +0 x9 +0 x10 +1 x11 +0 x12 +1 x13 +0 x14 +0 x15 +0 x16 +0 x17 +0 x18 +0 x19 +0 x20 +1 x21 +0 x22 +1 x23 +1 x24 +1 x25 +0 x26 +0 x27 +1 x28 +0 x29 +1 x30 +1 x31 +1 x32 +0 x33 +1 x34 +1 x35 +0 x36 +1 x37 +0 x38 +0 x39 +1 x40 +0 x41 +0 x42 +1 x43 +0 x44 +1 x45 +1 x46 +0 x47 +0 x48 +1 x49 +1 x50 +0 x51 +1 x52 +0 x53 +0 x54 +0 x55 +0 x56 +0 x57 +0 x58 +0 x59 +1 x60 +1 x61 +1 x62 +0 x63 +0 x64 +0 x65 +1 x66 +0 x67 +0 x68 +0 x69 +1 x70 +0 x71 +0 x72 +0 x73 +0 x74 +1 x75 +0 x76 +0 x77 +0 x78 +0 x79 +0 x80 +1 x81 +1 x82 +0 x83 +0 x84 +0 x85 +0 x86 +1 x87 +0 x88 +0 x89 +0 x90 +0 x91 +0 x92 +0 x93 +0 x94 +0 x95 +0 x96 +0 x97 +0 x98 +0 x99 - s9 = 1
C9:  +0 x0 +0 x1 +0 x2 +0 x3 +1 x4 +0 x5 +0 x6 +0 x7 +1 x8 +1 x9 +0 x10 +0 x11 +0 x12 +0 x13 +0 x14 +0 x15 +0 x16 +0 x17 +0 x18 +1 x19 +1 x20 +0 x21 +0 x22 +1 x23 +0 x24 +0 x25 +0 x26 +0 x27 +0 x28 +0 x29 +0 x30 +0 x31 +1 x32 +0 x33 +0 x34 +0 x35 +0 x36 +0 x37 +1 x38 +0 x39 +0 x40 +1 x41 +0 x42 +1 x43 +0 x44 +0 x45 +1 x46 +1 x47 +1 x48 +0 x49 +0 x50 +0 x51 +0 x52 +1 x53 +0 x54 +0 x55 +0 x56 +1 x57 +1 x58 +1 x59 +0 x60 +1 x61 +0 x62 +0 x63 +0 x64 +0 x65 +0 x66 +1 x67 +1 x68 +1 x69 +0 x70 +0 x71 +1 x72 +0 x73 +0 x74 +0 x75 +1 x76 +0 x77 +1 x78 +0 x79 +0 x80 +0 x81 +0 x82 +1 x83 +0 x84 +1 x85 +0 x86 +0 x87 +1 x88 +1 x89 +0 x90 +0 x91 +1 x92 +0 x93 +0 x94 +0 x95 +0 x96 +0 x97 +0 x98 +0 x99 - s10 = 1
Binary
x0
x1
x2
x3
x4
x5
x6
x7
x8
x9
x10
x11
x12
x13
x14
x15
x16
x17
x18
x19
x20
x21
x22
x23
x24
x25
x26
x27
x28
x29
x30
x31
x32
x33
x34
x35
x36
x37
x38
x39
x40
x41
x42
x43
x44
x45
x46
x47
x48
x49
x50
x51
x52
x53
x54
x55
x56
x57
x58
x59
x60
x61
x62
x63
x64
x65
x66
x67
x68
x69
x70
x71
x72
x73
x74
x75
x76
x77
x78
x79
x80
x81
x82
x83
x84
x85
x86
x87
x88
x89
x90
x91
x92
x93
x94
x95
x96
x97
x98
x99
END